WARNING: for repeatability, setting FPU to use double precision
============================[ Problem Statistics ]=============================
|                                                                             |
|  Number of variables:           100                                         |
|  Number of clauses:             449                                         |
|  Parse time:                   0.00 s                                       |
|  Eliminated clauses:           0.00 Mb                                      |
|  Simplification time:          0.00 s                                       |
|                                                                             |
============================[ Search Statistics ]==============================
| Conflicts |          ORIGINAL         |          LEARNT          | Progress |
|           |    Vars  Clauses Literals |    Limit  Clauses Lit/Cl |          |
===============================================================================
|       100 |      99      448     1350 |      164      100      7 |  0.010 % |
|       250 |      98      437     1317 |      180       94      6 |  1.010 % |
===============================================================================
restarts              : 3
conflicts             : 343            (93207 /sec)
decisions             : 421            (0.00 % random) (114402 /sec)
propagations          : 7656           (2080435 /sec)
conflict literals     : 1961           (22.15 % deleted)
Memory used           : 13.00 MB
CPU time              : 0.00368 s

SATISFIABLE
